n_nodes = 20;
edges = [
	{2, 3, 4, 5, 6, 7, 8, 9, 11, 12, 13, 15, 16, 19, 20},
	{9, 19, 12, 7},
	{4, 11, 12, 13, 14, 15, 16},
	{5, 6, 7, 8, 11, 13, 14, 16, 19},
	{6, 8, 13, 16, 19, 20},
	{7, 8, 11, 12, 15, 16},
	{8, 12, 20, 15},
	{11},
	{10, 18, 11},
	{ },
	{16, 17, 12},
	{14, 15},
	{16, 17, 14, 15},
	{16, 17, 15},
	{16, 17, 20},
	{17},
	{18, 20},
	{ },
	{ },
	{ }
];